
  32   50
   5    1   11    3   13   10   11   21   17    9   10   13   15    8    7    7   11   11   19   19   16   16   11   14   13    9    7    8   10   10    9   13    0    0    0    0    0    0    0    0    0    0    0    0    0    0    0    0    0    0

   0   0   0   0   0   0   0   0   0   0   0   0   0   0   0   0   0   0   0   0   0   0   0   0   0   0   0   0   0   0   0   0   0   0   0   0   0   0   0   0   0   0   0   0   0   0   0   0   0   0   0  12 2 3 4 5 6 7 8 9 10 11 13 16 
   8   0   0   0   0   0   0   0   0   0   0   0   0   2   0   0   0   0   2   0   7   5   5   0   0   1   0   0   0   0   9   0   0   0   0   0   0   0   0   0   0   0   0   0   0   0   0   0   0   0   0   7 31 28 21 20 17 15 12 
   1   0   0   0   0   2   0   5  10   0   0   0   0   0   0   0   0   0   0   0   0   0   0   0   0   0   0   0   0   0   3   0   7   0   0   0   0   0   0   0   0   0   0   0   0   0   0   0   0   0   0   7 30 29 28 22 19 17 15 
   3   0   0   0   0   0   0   8   0   4   0   0   0   0   0   0   0   0   0   0   0   0   2   0   0   0   0   0   0   0   0   0   0   0   0   0   0   0   0   0   0   0   0   0   0   0   0   0   0   0   0   8 30 29 28 25 20 19 18 17 
   7   0   0   0   0   0   0   0   0   0   0  10   0   9   0   0   0   0   0   0   0   0   0   0   0   7   0   0   0   0   0   0   0   0   0   0   0   0   0   0   0   0   0   0   0   0   0   0   0   0   0   6 30 29 25 19 17 15 
   8   0   1   0   0   0   0   0   0   0   0   0   0   0   0   0   0   0   0   0   0   0   0   0   0   0   0   7   0   0   0   0   0   0   0   0   0   0   0   0   0   0   0   0   0   0   0   0   0   0   0   6 31 27 26 25 20 15 
  10   0   0   0   0   0   0   0   0   0   0   0   0   0   0   0   0   0   0   0   3   0   0   0   0   0   0   0   0   0   0   0   0   0   0   0   0   0   0   0   0   0   0   0   0   0   0   0   0   0   0   5 25 20 19 18 17 
   8   0   0   0   0   0   0   0   0   3   0   0   0   0   0   0   5   0   0   0   4   0   9   0   0   0   0   0   0   0   0   0   0   0   0   0   0   0   0   0   0   0   0   0   0   0   0   0   0   0   0   4 25 19 17 15 
   8   0   0   0   0   0   0   0   0   0   0   0   0   0   0   0   0   0   0   0   0   0   0   8   9   3   0   0   0   0   0   0   0   0   0   0   0   0   0   0   0   0   0   0   0   0   0   0   0   0   0   6 27 26 24 22 21 18 
   8   0   0   0   0   0   0   0   0   4   4   0   0   0   0   0   0   0   0   0   0   0   0   0   0   0   0   0   0   0   0   0   0   0   0   0   0   0   0   0   0   0   0   0   0   0   0   0   0   0   0   4 28 24 19 14 
   7   0   0   0   0   0   0   0   0   0   0   0   0   0   8   0   0   0   0   9  10   0   0   0   0   0   2   0   0   0   0   0   0   0   0   0   0   0   0   0   0   0   0   0   0   0   0   0   0   0   0   4 27 21 20 15 
   5   0   0   0   0   0   0   0  10   0   0   0   0   0   0   0   0   8   0   0   0   0   0   0   0   0   0   0   0   0   0   0   0   0   0   0   0   0   0   0   0   0   0   0   0   0   0   0   0   0   0   5 29 25 24 23 19 
   6   0   0   0   0   0   0   0   0   0   0   0   0   8   0   3   0   0   0   0   0   6   0   5   0   6   0   0   0   0   0   0   0   0   0   0   0   0   0   0   0   0   0   0   0   0   0   0   0   0   0   5 31 28 25 24 21 
  10   0   0   2   0   5   0   0   0   0   0   0   9   0   0   1   0   0   0   0   0   0   0   0   0   0   0   0   0   0   0   0   0   0   0   0   0   0   0   0   0   0   0   0   0   0   0   0   0   0   0   3 26 25 18 
   5   0   0   0   0   0   0   0   0   0   0   0   0   0   0   0   4   0   0   0   0   0   9   0   8   0   0   0   0   0   0   3   0   0   0   0   0   0   0   0   0   0   0   0   0   0   0   0   0   0   0   2 24 18 
   7   0   0   0   1   1   0   0   0  10   0   0   0   0   0   0   0   0   0   0   0   9   5   0   8   0   8   0   0   0   0   0   0   0   0   0   0   0   0   0   0   0   0   0   0   0   0   0   0   0   0   2 30 18 
   9   0   0   0   0   0   0   5   0   1   0   0   2   8   0   0   0   0   0   0   0   0   6   0   0   0   0   0   8   0   0   0   0   0   0   0   0   0   0   0   0   0   0   0   0   0   0   0   0   0   0   2 27 24 
   7   0   0   0   0   3   0   0   0   0   0   0   0   0   0   0   7   0   0   0   0   0   0   0   0   0   0   1   0   0   0   0   0   0   0   0   0   0   0   0   0   0   0   0   0   0   0   0   0   0   0   1 23 
   8   0   0   0   0   0   0   3   0   0   0   0   5   0   0   0   0   0   0  10   0   0   0   3   0   0   0   0   0   0   0   0  10   0   0   0   0   0   0   0   0   0   0   0   0   0   0   0   0   0   0   1 26 
   5   0   0   0   0   0   0   0  10   0   0   0   0   0   0   0   1   4   0   0   0   0   0   0   0   0   0   0   0   0   0   0   0   0   0   0   0   0   0   0   0   0   0   0   0   0   0   0   0   0   0   1 23 
   9   0   0  10   0   1   0   0   0   0   6   0   0   0   0   0   0   1   0   0   0   0   0   0   0   0   8   0   0   0   0   0   0   0   0   0   0   0   0   0   0   0   0   0   0   0   0   0   0   0   0   1 23 
   8   0   0   0   0   0   0   0   0   0   5   8   0   0   0   0   0   0   0   0   0   0   0   0   0   0   0   0   0   0   0   0   6   0   0   0   0   0   0   0   0   0   0   0   0   0   0   0   0   0   0   1 25 
   2   0   0   0   0   0   0   8   0   0   0   0   4   0   0   0   0   0   0   0   0   0   0   0   0   0   0   0   0   0   0   0   0   0   0   0   0   0   0   0   0   0   0   0   0   0   0   0   0   0   0   1 32
   9   0   0   0   0   0   0   0   0   0   0   0   0   0   0   0   0   0   0   0   0   0   0   0   6   0   0   0   0   0   0   0   0   0   0   0   0   0   0   0   0   0   0   0   0   0   0   0   0   0   0   1 32
   4   0   0   0   0   0   0   0   0   0   0   0   0   0   0   0   0   0   9   0   0   0   0   0   0   0   0   0   0   2   0   2   0   0   0   0   0   0   0   0   0   0   0   0   0   0   0   0   0   0   0   1 32
   3   0   0   0   0   0   3   0   0   0   0   0   0   0   0   0   0   0   0   0   8   0   0   0   0   0   0   6   0   9   0   0   0   0   0   0   0   0   0   0   0   0   0   0   0   0   0   0   0   0   0   1 32
   6   0   0   0   0   7   0   4   0   0   0   0   0   0   0   7   0   7   3   0   0   0   0   8   0   0   0   0   0   0   3   8   0   0   0   0   0   0   0   0   0   0   0   0   0   0   0   0   0   0   0   1 32
   8   0   0   0   0   0   0   1   0   0   0   0   0   0   0   0   0   0   9  10   0   0   0   0   0   0   0   0   0   0   0   7   0   0   0   0   0   0   0   0   0   0   0   0   0   0   0   0   0   0   0   1 32
   5   0   0   0   3  10   0   4   0   0   0   0   0   0   0   0   0   0   4   4   0   0   0   0   0   2   0   0   0   0   6   0   0   0   0   0   0   0   0   0   0   0   0   0   0   0   0   0   0   0   0   1 32
   6   0   0   0   0  10  10   0   8   0   0   0   0   0   0   0   0   0   0   0   0   0   0   0   0   0   0   0   0   0   0   0   0   0   0   0   0   0   0   0   0   0   0   0   0   0   0   0   0   0   0   1 32
   5   5   0   0   0   0   0   0   0   0   0   0   0   0   4   0   0   0   0   7   0   0   0   9   0   0   0   0   0   0   0   0   0   0   0   0   0   0   0   0   0   0   0   0   0   0   0   0   0   0   0   1 32
   0   0   0   0   0   0   0   0   0   0   0   0   0   0   0   0   0   0   0   0   0   0   0   0   0   0   0   0   0   0   0   0   0   0   0   0   0   0   0   0   0   0   0   0   0   0   0   0   0   0   0   0 
